
Gurobi 10.0.1 (win64) logging started Sat Sep  9 01:38:37 2023

Set parameter LogFile to value "results-heuristic-start//log/BA_07_deadline.log"
Gurobi Optimizer version 10.0.1 build v10.0.1rc0 (win64)

CPU model: AMD Ryzen 7 3700X 8-Core Processor, instruction set [SSE2|AVX|AVX2]
Thread count: 8 physical cores, 16 logical processors, using up to 16 threads

Optimize a model with 145 rows, 124 columns and 500 nonzeros
Model fingerprint: 0x16f2cf0b
Model has 1 quadratic constraint
Variable types: 18 continuous, 106 integer (105 binary)
Coefficient statistics:
  Matrix range     [1e+00, 1e+06]
  QMatrix range    [1e+00, 1e+00]
  QLMatrix range   [1e+00, 1e+01]
  Objective range  [1e+00, 1e+00]
  Bounds range     [1e+00, 1e+00]
  RHS range        [1e+00, 3e+06]

User MIP start produced solution with objective 471 (0.00s)
Loaded user MIP start with objective 471

Presolve removed 29 rows and 65 columns
Presolve time: 0.00s
Presolved: 123 rows, 65 columns, 481 nonzeros
Variable types: 24 continuous, 41 integer (40 binary)

Root relaxation: objective 0.000000e+00, 22 iterations, 0.00 seconds (0.00 work units)

    Nodes    |    Current Node    |     Objective Bounds      |     Work
 Expl Unexpl |  Obj  Depth IntInf | Incumbent    BestBd   Gap | It/Node Time

     0     0    0.00000    0    4  471.00000    0.00000   100%     -    0s
H    0     0                      19.0000000    0.00000   100%     -    0s
H    0     0                      18.0000000    0.00000   100%     -    0s
     0     0    0.00000    0    2   18.00000    0.00000   100%     -    0s
H    0     0                      17.0000000    0.00000   100%     -    0s
     0     0    0.00000    0    1   17.00000    0.00000   100%     -    0s
     0     0    0.00000    0    3   17.00000    0.00000   100%     -    0s
     0     0    0.00000    0    1   17.00000    0.00000   100%     -    0s
     0     0    0.00000    0    3   17.00000    0.00000   100%     -    0s
     0     0    0.00000    0    3   17.00000    0.00000   100%     -    0s
     0     0    0.00000    0    6   17.00000    0.00000   100%     -    0s
     0     0    0.00000    0    6   17.00000    0.00000   100%     -    0s
H    0     2                      15.0000000    0.00000   100%     -    0s
     0     2    0.00000    0    6   15.00000    0.00000   100%     -    0s
H    1     4                      13.0000000    0.00000   100%   0.0    0s
H   31    28                      12.0000000    2.00000  83.3%   7.1    0s
H   68    41                      11.0000000    2.00000  81.8%   5.2    0s

Cutting planes:
  Learned: 37
  Cover: 4
  Implied bound: 8
  MIR: 1
  Flow cover: 5
  RLT: 4

Explored 537 nodes (1838 simplex iterations) in 0.04 seconds (0.02 work units)
Thread count was 16 (of 16 available processors)

Solution count 8: 11 12 13 ... 471

Optimal solution found (tolerance 1.00e-04)
Best objective 1.100000000000e+01, best bound 1.100000000000e+01, gap 0.0000%
Warning: constraint name "precedence between 0,2 to 0,0 if x_[j,l,h,z,i]=1" has a space
Warning: constraint name "precedence between 0,2 to 0,0 if x_[j,l,h,z,i]=1" has a space
Warning: default constraint names used to write mps file
